40	100	100	100
80	95	77
83	60	53
50	74	97
94	76	51
79	59	73
98	58	85
91	63	79
86	51	83
77	79	58
80	72	94
56	84	97
50	75	87
89	58	71
84	53	97
77	53	51
77	56	57
71	50	50
52	83	84
54	57	73
51	94	96
55	65	55
93	98	54
69	72	69
59	71	60
54	55	79
54	97	50
80	73	60
71	88	71
75	81	75
95	96	50
54	74	84
74	96	57
52	91	73
63	96	84
95	69	78
63	98	74
55	94	61
89	90	52
92	86	67
87	90	91
